5 5
2 81 3 15 4 36 0 92 1 15
3 75 4 56 1 95 0 4 2 99
1 98 2 52 3 91 0 10 4 94
0 45 1 84 2 29 4 53 3 29
2 23 0 57 3 50 4 21 1 43
-1
0 1 3 5
0 1 2 3 5
0 1 2 3 5
0 2 3 4 5
0 2 5
-2
83 179 361
111 193 352 408
131 218 256 518
144 167 226 352
120 299

380 6
15 21 3 13 8
10 16 7 4 24
20 0 11 17 9
5 1 22 12 19
6 2 23 18 14
